c Grid graph 3x21
p edge 63 102
e 1 2
e 1 22
e 2 3
e 2 23
e 3 4
e 3 24
e 4 5
e 4 25
e 5 6
e 5 26
e 6 7
e 6 27
e 7 8
e 7 28
e 8 9
e 8 29
e 9 10
e 9 30
e 10 11
e 10 31
e 11 12
e 11 32
e 12 13
e 12 33
e 13 14
e 13 34
e 14 15
e 14 35
e 15 16
e 15 36
e 16 17
e 16 37
e 17 18
e 17 38
e 18 19
e 18 39
e 19 20
e 19 40
e 20 21
e 20 41
e 21 42
e 22 23
e 22 43
e 23 24
e 23 44
e 24 25
e 24 45
e 25 26
e 25 46
e 26 27
e 26 47
e 27 28
e 27 48
e 28 29
e 28 49
e 29 30
e 29 50
e 30 31
e 30 51
e 31 32
e 31 52
e 32 33
e 32 53
e 33 34
e 33 54
e 34 35
e 34 55
e 35 36
e 35 56
e 36 37
e 36 57
e 37 38
e 37 58
e 38 39
e 38 59
e 39 40
e 39 60
e 40 41
e 40 61
e 41 42
e 41 62
e 42 63
e 43 44
e 44 45
e 45 46
e 46 47
e 47 48
e 48 49
e 49 50
e 50 51
e 51 52
e 52 53
e 53 54
e 54 55
e 55 56
e 56 57
e 57 58
e 58 59
e 59 60
e 60 61
e 61 62
e 62 63
